instances/knapsack/discrete_knapsack_uncertainty/knapsack_70_18.lp
\ Model knapsack_70_18
\ LP format - for model browsing. Use MPS format to capture full model detail.
\ Signature: 0x9699bb600e1f4c54
Minimize
  - x[0] - 89 x[1] - 55 x[2] - 11 x[3] - 84 x[4] - 20 x[5] - 4 x[6]
   - 42 x[7] - 21 x[8] - 21 x[9] - 86 x[10] - 86 x[11] - 26 x[12] - 9 x[13]
   - 2 x[14] - 7 x[15] - 25 x[16] - 9 x[17] - 13 x[18] - 8 x[19] - 80 x[20]
   - 78 x[21] - 67 x[22] - 79 x[23] - 16 x[24] - 5 x[25] - 67 x[26]
   - 14 x[27] - 93 x[28] - 63 x[29] - 24 x[30] - 43 x[31] - 63 x[32]
   - 50 x[33] - 46 x[34] - 20 x[35] - 24 x[36] - 46 x[37] - 17 x[38]
   - 34 x[39] - 27 x[40] - 64 x[41] - 72 x[42] - 46 x[43] - 77 x[44]
   - 22 x[45] - 67 x[46] - 91 x[47] - 71 x[48] - 56 x[49] - 58 x[50]
   - 93 x[51] - 38 x[52] - 72 x[53] - 63 x[54] - 37 x[55] - 77 x[56]
   - 51 x[57] - 47 x[58] - 82 x[59] - 7 x[60] - 41 x[61] - 16 x[62]
   - 36 x[63] - 5 x[64] - 68 x[65] - 100 x[66] - 32 x[67] - 27 x[68]
   - 32 x[69]
Subject To
 primal_upper: 96 x[0] + 33 x[1] + 99 x[2] + 8 x[3] + 77 x[4] + 98 x[5]
   + 14 x[6] + 20 x[7] + 22 x[8] + 11 x[9] + 84 x[10] + 40 x[11] + 81 x[12]
   + 37 x[13] + 85 x[14] + 13 x[15] + 78 x[16] + 29 x[17] + 38 x[18]
   + 7 x[19] + 66 x[20] + 100 x[21] + 73 x[22] + 95 x[23] + 89 x[24]
   + 29 x[25] + 83 x[26] + 80 x[27] + 34 x[28] + 88 x[29] + 14 x[30]
   + 64 x[31] + 52 x[32] + 34 x[33] + 41 x[34] + 66 x[35] + 41 x[36]
   + 89 x[37] + 93 x[38] + 43 x[39] + 64 x[40] + 34 x[41] + 23 x[42]
   + 2 x[43] + 64 x[44] + 79 x[45] + 74 x[46] + 74 x[47] + 32 x[48]
   + 9 x[49] + 15 x[50] + 21 x[51] + 66 x[52] + 81 x[53] + 69 x[54]
   + 76 x[55] + 2 x[56] + 95 x[57] + 65 x[58] + 75 x[59] + 93 x[60]
   + 23 x[61] + 4 x[62] + 35 x[63] + 96 x[64] + 53 x[65] + 49 x[66]
   + 95 x[67] + 29 x[68] + 82 x[69] + 9.6 r[0] + 3.3 r[1] + 9.9 r[2]
   + 0.8 r[3] + 7.7 r[4] + 9.8 r[5] + 1.4 r[6] + 2 r[7] + 2.2 r[8]
   + 1.1 r[9] + 8.4 r[10] + 4 r[11] + 8.1 r[12] + 3.7 r[13] + 8.5 r[14]
   + 1.3 r[15] + 7.8 r[16] + 2.9 r[17] + 3.8 r[18] + 0.7 r[19] + 6.6 r[20]
   + 10 r[21] + 7.3 r[22] + 9.5 r[23] + 8.9 r[24] + 2.9 r[25] + 8.3 r[26]
   + 8 r[27] + 3.4 r[28] + 8.8 r[29] + 1.4 r[30] + 6.4 r[31] + 5.2 r[32]
   + 3.4 r[33] + 4.1 r[34] + 6.6 r[35] + 4.1 r[36] + 8.9 r[37] + 9.3 r[38]
   + 4.3 r[39] + 6.4 r[40] + 3.4 r[41] + 2.3 r[42] + 0.2 r[43] + 6.4 r[44]
   + 7.9 r[45] + 7.4 r[46] + 7.4 r[47] + 3.2 r[48] + 0.9 r[49] + 1.5 r[50]
   + 2.1 r[51] + 6.6 r[52] + 8.1 r[53] + 6.9 r[54] + 7.6 r[55] + 0.2 r[56]
   + 9.5 r[57] + 6.5 r[58] + 7.5 r[59] + 9.3 r[60] + 2.3 r[61] + 0.4 r[62]
   + 3.5 r[63] + 9.6 r[64] + 5.3 r[65] + 4.9 r[66] + 9.5 r[67] + 2.9 r[68]
   + 8.2 r[69] <= 364
 primal_lower: 4.363217257013078 x[0] + 4.216630502862841 x[1]
   + 3.677671414441333 x[2] + 1.610319688066162 x[3]
   + 2.727814982518625 x[4] + 4.068733100744796 x[5]
   + 3.014322622823305 x[6] + 4.704061693046555 x[7]
   + 4.161746747003803 x[8] + 1.432538880556437 x[9]
   + 2.304409168614869 x[10] + 0.5184970336957934 x[11]
   + 3.542758367965728 x[12] + 2.585208363415318 x[13]
   + 1.654289796292884 x[14] + 1.012382148759071 x[15]
   + 1.776207698452834 x[16] + 2.867918467790787 x[17]
   + 3.63852462208596 x[18] + 1.173659536043377 x[19]
   + 0.998414600279196 x[20] + 0.0254697344766657 x[21]
   + 1.197163123374332 x[22] + 2.506888430636436 x[23]
   + 3.148990241860891 x[24] + 2.923279526130706 x[25]
   + 1.807139104223957 x[26] + 4.727872654122133 x[27]
   + 1.359212988582503 x[28] + 2.503026305863437 x[29]
   + 0.9222653171822782 x[30] + 1.993265943019477 x[31]
   + 1.469067244942942 x[32] + 3.265322364922748 x[33]
   + 2.693035893554883 x[34] + 0.242845752951326 x[35]
   + 0.4655775744872946 x[36] + 3.049202903908279 x[37]
   + 4.225712686541566 x[38] + 4.68566003092942 x[39]
   + 2.444944936037115 x[40] + 4.754524626018537 x[41]
   + 3.290640354501433 x[42] + 2.373820852005694 x[43]
   + 2.191100231355011 x[44] + 1.309634273591759 x[45]
   + 0.777036673996353 x[46] + 4.086339556848582 x[47]
   + 1.445346473802356 x[48] + 4.417491834330343 x[49]
   + 0.3179063038081387 x[50] + 1.861842310077144 x[51]
   + 2.893285316897402 x[52] + 3.875282303582658 x[53]
   + 3.300467798416624 x[54] + 3.783195626636186 x[55]
   + 4.254587906247776 x[56] + 3.010018167952373 x[57]
   + 1.680570165023715 x[58] + 3.420833389347543 x[59]
   + 1.08107794607373 x[60] + 1.098001074306763 x[61]
   + 4.267518915865746 x[62] + 0.1468638716205515 x[63]
   + 0.8949386934129039 x[64] + 1.798631717236108 x[65]
   + 3.090734492008076 x[66] + 0.9447647844877476 x[67]
   + 1.71124138096661 x[68] + 3.302555083116101 x[69] + 48 u[0] + 36 u[1]
   + 74 u[2] + 31 u[3] + 72 u[4] + 70 u[5] + 89 u[6] + 60 u[7] + 65 u[8]
   + 14 u[9] + 24 u[10] + 51 u[11] + 28 u[12] + 80 u[13] + 17 u[14]
   + 5 u[15] + 37 u[16] + 52 u[17] + 29 u[18] + 38 u[19] + 81 u[20]
   + 64 u[21] + 56 u[22] + 95 u[23] + 81 u[24] + 64 u[25] + 74 u[26]
   + 92 u[27] + 78 u[28] + 67 u[29] + 58 u[30] + 40 u[31] + 44 u[32]
   + 49 u[33] + 60 u[34] + 81 u[35] + 72 u[36] + 57 u[37] + 68 u[38]
   + 3 u[39] + 3 u[40] + 38 u[41] + 10 u[42] + 82 u[43] + 47 u[44]
   + 55 u[45] + 42 u[46] + 46 u[47] + 63 u[48] + 16 u[49] + 51 u[50]
   + 96 u[51] + 13 u[52] + 96 u[53] + 41 u[54] + 96 u[55] + 33 u[56]
   + 15 u[57] + 60 u[58] + 6 u[59] + 9 u[60] + 3 u[61] + 36 u[62]
   + 59 u[63] + 44 u[64] + 32 u[65] + 89 u[66] + 23 u[67] + 84 u[68]
   + 90 u[69] <= 5610
 mccormick1[0]: - u[0] + r[0] <= 0
 mccormick1[1]: - u[1] + r[1] <= 0
 mccormick1[2]: - u[2] + r[2] <= 0
 mccormick1[3]: - u[3] + r[3] <= 0
 mccormick1[4]: - u[4] + r[4] <= 0
 mccormick1[5]: - u[5] + r[5] <= 0
 mccormick1[6]: - u[6] + r[6] <= 0
 mccormick1[7]: - u[7] + r[7] <= 0
 mccormick1[8]: - u[8] + r[8] <= 0
 mccormick1[9]: - u[9] + r[9] <= 0
 mccormick1[10]: - u[10] + r[10] <= 0
 mccormick1[11]: - u[11] + r[11] <= 0
 mccormick1[12]: - u[12] + r[12] <= 0
 mccormick1[13]: - u[13] + r[13] <= 0
 mccormick1[14]: - u[14] + r[14] <= 0
 mccormick1[15]: - u[15] + r[15] <= 0
 mccormick1[16]: - u[16] + r[16] <= 0
 mccormick1[17]: - u[17] + r[17] <= 0
 mccormick1[18]: - u[18] + r[18] <= 0
 mccormick1[19]: - u[19] + r[19] <= 0
 mccormick1[20]: - u[20] + r[20] <= 0
 mccormick1[21]: - u[21] + r[21] <= 0
 mccormick1[22]: - u[22] + r[22] <= 0
 mccormick1[23]: - u[23] + r[23] <= 0
 mccormick1[24]: - u[24] + r[24] <= 0
 mccormick1[25]: - u[25] + r[25] <= 0
 mccormick1[26]: - u[26] + r[26] <= 0
 mccormick1[27]: - u[27] + r[27] <= 0
 mccormick1[28]: - u[28] + r[28] <= 0
 mccormick1[29]: - u[29] + r[29] <= 0
 mccormick1[30]: - u[30] + r[30] <= 0
 mccormick1[31]: - u[31] + r[31] <= 0
 mccormick1[32]: - u[32] + r[32] <= 0
 mccormick1[33]: - u[33] + r[33] <= 0
 mccormick1[34]: - u[34] + r[34] <= 0
 mccormick1[35]: - u[35] + r[35] <= 0
 mccormick1[36]: - u[36] + r[36] <= 0
 mccormick1[37]: - u[37] + r[37] <= 0
 mccormick1[38]: - u[38] + r[38] <= 0
 mccormick1[39]: - u[39] + r[39] <= 0
 mccormick1[40]: - u[40] + r[40] <= 0
 mccormick1[41]: - u[41] + r[41] <= 0
 mccormick1[42]: - u[42] + r[42] <= 0
 mccormick1[43]: - u[43] + r[43] <= 0
 mccormick1[44]: - u[44] + r[44] <= 0
 mccormick1[45]: - u[45] + r[45] <= 0
 mccormick1[46]: - u[46] + r[46] <= 0
 mccormick1[47]: - u[47] + r[47] <= 0
 mccormick1[48]: - u[48] + r[48] <= 0
 mccormick1[49]: - u[49] + r[49] <= 0
 mccormick1[50]: - u[50] + r[50] <= 0
 mccormick1[51]: - u[51] + r[51] <= 0
 mccormick1[52]: - u[52] + r[52] <= 0
 mccormick1[53]: - u[53] + r[53] <= 0
 mccormick1[54]: - u[54] + r[54] <= 0
 mccormick1[55]: - u[55] + r[55] <= 0
 mccormick1[56]: - u[56] + r[56] <= 0
 mccormick1[57]: - u[57] + r[57] <= 0
 mccormick1[58]: - u[58] + r[58] <= 0
 mccormick1[59]: - u[59] + r[59] <= 0
 mccormick1[60]: - u[60] + r[60] <= 0
 mccormick1[61]: - u[61] + r[61] <= 0
 mccormick1[62]: - u[62] + r[62] <= 0
 mccormick1[63]: - u[63] + r[63] <= 0
 mccormick1[64]: - u[64] + r[64] <= 0
 mccormick1[65]: - u[65] + r[65] <= 0
 mccormick1[66]: - u[66] + r[66] <= 0
 mccormick1[67]: - u[67] + r[67] <= 0
 mccormick1[68]: - u[68] + r[68] <= 0
 mccormick1[69]: - u[69] + r[69] <= 0
 mccormick2[0]: - x[0] + r[0] <= 0
 mccormick2[1]: - x[1] + r[1] <= 0
 mccormick2[2]: - x[2] + r[2] <= 0
 mccormick2[3]: - x[3] + r[3] <= 0
 mccormick2[4]: - x[4] + r[4] <= 0
 mccormick2[5]: - x[5] + r[5] <= 0
 mccormick2[6]: - x[6] + r[6] <= 0
 mccormick2[7]: - x[7] + r[7] <= 0
 mccormick2[8]: - x[8] + r[8] <= 0
 mccormick2[9]: - x[9] + r[9] <= 0
 mccormick2[10]: - x[10] + r[10] <= 0
 mccormick2[11]: - x[11] + r[11] <= 0
 mccormick2[12]: - x[12] + r[12] <= 0
 mccormick2[13]: - x[13] + r[13] <= 0
 mccormick2[14]: - x[14] + r[14] <= 0
 mccormick2[15]: - x[15] + r[15] <= 0
 mccormick2[16]: - x[16] + r[16] <= 0
 mccormick2[17]: - x[17] + r[17] <= 0
 mccormick2[18]: - x[18] + r[18] <= 0
 mccormick2[19]: - x[19] + r[19] <= 0
 mccormick2[20]: - x[20] + r[20] <= 0
 mccormick2[21]: - x[21] + r[21] <= 0
 mccormick2[22]: - x[22] + r[22] <= 0
 mccormick2[23]: - x[23] + r[23] <= 0
 mccormick2[24]: - x[24] + r[24] <= 0
 mccormick2[25]: - x[25] + r[25] <= 0
 mccormick2[26]: - x[26] + r[26] <= 0
 mccormick2[27]: - x[27] + r[27] <= 0
 mccormick2[28]: - x[28] + r[28] <= 0
 mccormick2[29]: - x[29] + r[29] <= 0
 mccormick2[30]: - x[30] + r[30] <= 0
 mccormick2[31]: - x[31] + r[31] <= 0
 mccormick2[32]: - x[32] + r[32] <= 0
 mccormick2[33]: - x[33] + r[33] <= 0
 mccormick2[34]: - x[34] + r[34] <= 0
 mccormick2[35]: - x[35] + r[35] <= 0
 mccormick2[36]: - x[36] + r[36] <= 0
 mccormick2[37]: - x[37] + r[37] <= 0
 mccormick2[38]: - x[38] + r[38] <= 0
 mccormick2[39]: - x[39] + r[39] <= 0
 mccormick2[40]: - x[40] + r[40] <= 0
 mccormick2[41]: - x[41] + r[41] <= 0
 mccormick2[42]: - x[42] + r[42] <= 0
 mccormick2[43]: - x[43] + r[43] <= 0
 mccormick2[44]: - x[44] + r[44] <= 0
 mccormick2[45]: - x[45] + r[45] <= 0
 mccormick2[46]: - x[46] + r[46] <= 0
 mccormick2[47]: - x[47] + r[47] <= 0
 mccormick2[48]: - x[48] + r[48] <= 0
 mccormick2[49]: - x[49] + r[49] <= 0
 mccormick2[50]: - x[50] + r[50] <= 0
 mccormick2[51]: - x[51] + r[51] <= 0
 mccormick2[52]: - x[52] + r[52] <= 0
 mccormick2[53]: - x[53] + r[53] <= 0
 mccormick2[54]: - x[54] + r[54] <= 0
 mccormick2[55]: - x[55] + r[55] <= 0
 mccormick2[56]: - x[56] + r[56] <= 0
 mccormick2[57]: - x[57] + r[57] <= 0
 mccormick2[58]: - x[58] + r[58] <= 0
 mccormick2[59]: - x[59] + r[59] <= 0
 mccormick2[60]: - x[60] + r[60] <= 0
 mccormick2[61]: - x[61] + r[61] <= 0
 mccormick2[62]: - x[62] + r[62] <= 0
 mccormick2[63]: - x[63] + r[63] <= 0
 mccormick2[64]: - x[64] + r[64] <= 0
 mccormick2[65]: - x[65] + r[65] <= 0
 mccormick2[66]: - x[66] + r[66] <= 0
 mccormick2[67]: - x[67] + r[67] <= 0
 mccormick2[68]: - x[68] + r[68] <= 0
 mccormick2[69]: - x[69] + r[69] <= 0
 mccormick3[0]: x[0] + u[0] - r[0] <= 1
 mccormick3[1]: x[1] + u[1] - r[1] <= 1
 mccormick3[2]: x[2] + u[2] - r[2] <= 1
 mccormick3[3]: x[3] + u[3] - r[3] <= 1
 mccormick3[4]: x[4] + u[4] - r[4] <= 1
 mccormick3[5]: x[5] + u[5] - r[5] <= 1
 mccormick3[6]: x[6] + u[6] - r[6] <= 1
 mccormick3[7]: x[7] + u[7] - r[7] <= 1
 mccormick3[8]: x[8] + u[8] - r[8] <= 1
 mccormick3[9]: x[9] + u[9] - r[9] <= 1
 mccormick3[10]: x[10] + u[10] - r[10] <= 1
 mccormick3[11]: x[11] + u[11] - r[11] <= 1
 mccormick3[12]: x[12] + u[12] - r[12] <= 1
 mccormick3[13]: x[13] + u[13] - r[13] <= 1
 mccormick3[14]: x[14] + u[14] - r[14] <= 1
 mccormick3[15]: x[15] + u[15] - r[15] <= 1
 mccormick3[16]: x[16] + u[16] - r[16] <= 1
 mccormick3[17]: x[17] + u[17] - r[17] <= 1
 mccormick3[18]: x[18] + u[18] - r[18] <= 1
 mccormick3[19]: x[19] + u[19] - r[19] <= 1
 mccormick3[20]: x[20] + u[20] - r[20] <= 1
 mccormick3[21]: x[21] + u[21] - r[21] <= 1
 mccormick3[22]: x[22] + u[22] - r[22] <= 1
 mccormick3[23]: x[23] + u[23] - r[23] <= 1
 mccormick3[24]: x[24] + u[24] - r[24] <= 1
 mccormick3[25]: x[25] + u[25] - r[25] <= 1
 mccormick3[26]: x[26] + u[26] - r[26] <= 1
 mccormick3[27]: x[27] + u[27] - r[27] <= 1
 mccormick3[28]: x[28] + u[28] - r[28] <= 1
 mccormick3[29]: x[29] + u[29] - r[29] <= 1
 mccormick3[30]: x[30] + u[30] - r[30] <= 1
 mccormick3[31]: x[31] + u[31] - r[31] <= 1
 mccormick3[32]: x[32] + u[32] - r[32] <= 1
 mccormick3[33]: x[33] + u[33] - r[33] <= 1
 mccormick3[34]: x[34] + u[34] - r[34] <= 1
 mccormick3[35]: x[35] + u[35] - r[35] <= 1
 mccormick3[36]: x[36] + u[36] - r[36] <= 1
 mccormick3[37]: x[37] + u[37] - r[37] <= 1
 mccormick3[38]: x[38] + u[38] - r[38] <= 1
 mccormick3[39]: x[39] + u[39] - r[39] <= 1
 mccormick3[40]: x[40] + u[40] - r[40] <= 1
 mccormick3[41]: x[41] + u[41] - r[41] <= 1
 mccormick3[42]: x[42] + u[42] - r[42] <= 1
 mccormick3[43]: x[43] + u[43] - r[43] <= 1
 mccormick3[44]: x[44] + u[44] - r[44] <= 1
 mccormick3[45]: x[45] + u[45] - r[45] <= 1
 mccormick3[46]: x[46] + u[46] - r[46] <= 1
 mccormick3[47]: x[47] + u[47] - r[47] <= 1
 mccormick3[48]: x[48] + u[48] - r[48] <= 1
 mccormick3[49]: x[49] + u[49] - r[49] <= 1
 mccormick3[50]: x[50] + u[50] - r[50] <= 1
 mccormick3[51]: x[51] + u[51] - r[51] <= 1
 mccormick3[52]: x[52] + u[52] - r[52] <= 1
 mccormick3[53]: x[53] + u[53] - r[53] <= 1
 mccormick3[54]: x[54] + u[54] - r[54] <= 1
 mccormick3[55]: x[55] + u[55] - r[55] <= 1
 mccormick3[56]: x[56] + u[56] - r[56] <= 1
 mccormick3[57]: x[57] + u[57] - r[57] <= 1
 mccormick3[58]: x[58] + u[58] - r[58] <= 1
 mccormick3[59]: x[59] + u[59] - r[59] <= 1
 mccormick3[60]: x[60] + u[60] - r[60] <= 1
 mccormick3[61]: x[61] + u[61] - r[61] <= 1
 mccormick3[62]: x[62] + u[62] - r[62] <= 1
 mccormick3[63]: x[63] + u[63] - r[63] <= 1
 mccormick3[64]: x[64] + u[64] - r[64] <= 1
 mccormick3[65]: x[65] + u[65] - r[65] <= 1
 mccormick3[66]: x[66] + u[66] - r[66] <= 1
 mccormick3[67]: x[67] + u[67] - r[67] <= 1
 mccormick3[68]: x[68] + u[68] - r[68] <= 1
 mccormick3[69]: x[69] + u[69] - r[69] <= 1
Bounds
Binaries
 x[0] x[1] x[2] x[3] x[4] x[5] x[6] x[7] x[8] x[9] x[10] x[11] x[12] x[13]
 x[14] x[15] x[16] x[17] x[18] x[19] x[20] x[21] x[22] x[23] x[24] x[25]
 x[26] x[27] x[28] x[29] x[30] x[31] x[32] x[33] x[34] x[35] x[36] x[37]
 x[38] x[39] x[40] x[41] x[42] x[43] x[44] x[45] x[46] x[47] x[48] x[49]
 x[50] x[51] x[52] x[53] x[54] x[55] x[56] x[57] x[58] x[59] x[60] x[61]
 x[62] x[63] x[64] x[65] x[66] x[67] x[68] x[69] u[0] u[1] u[2] u[3] u[4]
 u[5] u[6] u[7] u[8] u[9] u[10] u[11] u[12] u[13] u[14] u[15] u[16] u[17]
 u[18] u[19] u[20] u[21] u[22] u[23] u[24] u[25] u[26] u[27] u[28] u[29]
 u[30] u[31] u[32] u[33] u[34] u[35] u[36] u[37] u[38] u[39] u[40] u[41]
 u[42] u[43] u[44] u[45] u[46] u[47] u[48] u[49] u[50] u[51] u[52] u[53]
 u[54] u[55] u[56] u[57] u[58] u[59] u[60] u[61] u[62] u[63] u[64] u[65]
 u[66] u[67] u[68] u[69] r[0] r[1] r[2] r[3] r[4] r[5] r[6] r[7] r[8] r[9]
 r[10] r[11] r[12] r[13] r[14] r[15] r[16] r[17] r[18] r[19] r[20] r[21]
 r[22] r[23] r[24] r[25] r[26] r[27] r[28] r[29] r[30] r[31] r[32] r[33]
 r[34] r[35] r[36] r[37] r[38] r[39] r[40] r[41] r[42] r[43] r[44] r[45]
 r[46] r[47] r[48] r[49] r[50] r[51] r[52] r[53] r[54] r[55] r[56] r[57]
 r[58] r[59] r[60] r[61] r[62] r[63] r[64] r[65] r[66] r[67] r[68] r[69]
End
