instances/knapsack/discrete_knapsack_uncertainty/knapsack_70_18.kp
17391
70
364

96 9.6 1
33 3.3 89
99 9.9 55
8 0.8 11
77 7.7 84
98 9.8 20
14 1.4 4
20 2.0 42
22 2.2 21
11 1.1 21
84 8.4 86
40 4.0 86
81 8.1 26
37 3.7 9
85 8.5 2
13 1.3 7
78 7.8 25
29 2.9 9
38 3.8 13
7 0.7 8
66 6.6 80
100 10.0 78
73 7.3 67
95 9.5 79
89 8.9 16
29 2.9 5
83 8.3 67
80 8.0 14
34 3.4 93
88 8.8 63
14 1.4 24
64 6.4 43
52 5.2 63
34 3.4 50
41 4.1 46
66 6.6 20
41 4.1 24
89 8.9 46
93 9.3 17
43 4.3 34
64 6.4 27
34 3.4 64
23 2.3 72
2 0.2 46
64 6.4 77
79 7.9 22
74 7.4 67
74 7.4 91
32 3.2 71
9 0.9 56
15 1.5 58
21 2.1 93
66 6.6 38
81 8.1 72
69 6.9 63
76 7.6 37
2 0.2 77
95 9.5 51
65 6.5 47
75 7.5 82
93 9.3 7
23 2.3 41
4 0.4 16
35 3.5 36
96 9.6 5
53 5.3 68
49 4.9 100
95 9.5 32
29 2.9 27
82 8.2 32

5610
341

[4.363217257013078 4.216630502862841 3.677671414441333 1.6103196880661623 2.7278149825186246 4.0687331007447955 3.0143226228233053 4.704061693046555 4.161746747003803 1.4325388805564365 2.304409168614869 0.5184970336957934 3.542758367965728 2.5852083634153185 1.6542897962928844 1.0123821487590705 1.7762076984528343 2.867918467790787 3.6385246220859595 1.1736595360433766 0.998414600279196 0.02546973447666572 1.1971631233743318 2.506888430636436 3.1489902418608913 2.923279526130706 1.8071391042239568 4.727872654122133 1.3592129885825033 2.503026305863437 0.9222653171822782 1.9932659430194772 1.4690672449429416 3.2653223649227483 2.6930358935548826 0.24284575295132602 0.4655775744872946 3.049202903908279 4.2257126865415655 4.68566003092942 2.4449449360371154 4.7545246260185365 3.2906403545014333 2.3738208520056943 2.1911002313550108 1.3096342735917592 0.777036673996353 4.086339556848582 1.445346473802356 4.417491834330343 0.3179063038081387 1.8618423100771435 2.8932853168974018 3.8752823035826585 3.300467798416624 3.783195626636186 4.254587906247776 3.0100181679523725 1.6805701650237148 3.4208333893475427 1.0810779460737296 1.0980010743067625 4.267518915865746 0.14686387162055153 0.8949386934129039 1.7986317172361082 3.090734492008076 0.9447647844877476 1.7112413809666098 3.3025550831161006]

[48 36 74 31 72 70 89 60 65 14 24 51 28 80 17 5 37 52 29 38 81 64 56 95 81 64 74 92 78 67 58 40 44 49 60 81 72 57 68 3 3 38 10 82 47 55 42 46 63 16 51 96 13 96 41 96 33 15 60 6 9 3 36 59 44 32 89 23 84 90]
